904.36,62.61,75.04
896.21,63.18,75.72
869.6,65.12,78.04
890.61,63.58,76.2
955.4,59.27,71.03
923.26,61.33,73.51
974.06,58.13,69.67
1032.31,54.85,65.74
969.5,58.41,70.0
995.82,56.86,68.15
1013.35,55.88,66.97
1015.7,55.75,66.82
931.37,60.8,72.87
1041.15,54.39,65.18
950.49,59.58,71.4
944.83,59.93,71.83
961.81,58.87,70.56
1014.87,55.8,66.87
958.85,59.06,70.78
941.61,60.14,72.07
